0
1
9.376613191  0 0
0 9.376613191  0
0 0 9.376613191 
Li O
64 32
D
0.375  0.375  0.125
0.375  0.375  0.625
0.375  0.875  0.125
0.375  0.875  0.625
0.875  0.375  0.125
0.875  0.375  0.625
0.875  0.875  0.125
0.875  0.875  0.625
0.375  0.125  0.375
0.375  0.125  0.875
0.375  0.625  0.375
0.375  0.625  0.875
0.875  0.125  0.375
0.875  0.125  0.875
0.875  0.625  0.375
0.875  0.625  0.875
0.125  0.375  0.375
0.125  0.375  0.875
0.125  0.875  0.375
0.125  0.875  0.875
0.625  0.375  0.375
0.625  0.375  0.875
0.625  0.875  0.375
0.625  0.875  0.875
0.125  0.125  0.125
0.125  0.125  0.625
0.125  0.625  0.125
0.125  0.625  0.625
0.625  0.125  0.125
0.625  0.125  0.625
0.625  0.625  0.125
0.625  0.625  0.625
0.375  0.375  0.375
0.375  0.375  0.875
0.375  0.875  0.375
0.375  0.875  0.875
0.875  0.375  0.375
0.875  0.375  0.875
0.875  0.875  0.375
0.875  0.875  0.875
0.375  0.125  0.125
0.375  0.125  0.625
0.375  0.625  0.125
0.375  0.625  0.625
0.875  0.125  0.125
0.875  0.125  0.625
0.875  0.625  0.125
0.875  0.625  0.625
0.125  0.375  0.125
0.125  0.375  0.625
0.125  0.875  0.125
0.125  0.875  0.625
0.625  0.375  0.125
0.625  0.375  0.625
0.625  0.875  0.125
0.625  0.875  0.625
0.125  0.125  0.375
0.125  0.125  0.875
0.125  0.625  0.375
0.125  0.625  0.875
0.625  0.125  0.375
0.625  0.125  0.875
0.625  0.625  0.375
0.625  0.625  0.875
0.000  0.000  0.000
0.000  0.000  0.500
0.000  0.500  0.000
0.000  0.500  0.500
0.500  0.000  0.000
0.500  0.000  0.500
0.500  0.500  0.000
0.500  0.500  0.500
0.000  0.250  0.250
0.000  0.250  0.750
0.000  0.750  0.250
0.000  0.750  0.750
0.500  0.250  0.250
0.500  0.250  0.750
0.500  0.750  0.250
0.500  0.750  0.750
0.250  0.000  0.250
0.250  0.000  0.750
0.250  0.500  0.250
0.250  0.500  0.750
0.750  0.000  0.250
0.750  0.000  0.750
0.750  0.500  0.250
0.750  0.500  0.750
0.250  0.250  0.000
0.250  0.250  0.500
0.250  0.750  0.000
0.250  0.750  0.500
0.750  0.250  0.000
0.750  0.250  0.500
0.750  0.750  0.000
0.750  0.750  0.500
